output ((["Scores\n"]++[show(x)])++["\nMatches\n"])++[show(matches[i,j])++if j==n then "\n" else " " endif | i in 1..n, j in 1..n, ];
int: n = 5;
array [1..n] of int: x;
array [1..n,1..n] of int: matches;
